
Gurobi 10.0.1 (linux64) logging started Fri 14 Jul 2023 09:16:21 PM CDT

Set parameter LogFile to value "/home/dlcole3/graph_abstraction/plasmoexamples/SHP_serial/SHP_reserve_requirements/gurobi_logs/logfile10.log"
Set parameter NodefileStart to value 0.0005
Set parameter TimeLimit to value 36000
Gurobi Optimizer version 10.0.1 build v10.0.1rc0 (linux64)

CPU model: Intel(R) Xeon(R) CPU E5-2698 v4 @ 2.20GHz, instruction set [SSE2|AVX|AVX2]
Thread count: 40 physical cores, 80 logical processors, using up to 8 threads


Warning: excessive time spent in model updates.
Consider calling update less frequently.

Optimize a model with 1103654 rows, 641709 columns and 4636589 nonzeros
Model fingerprint: 0x4236d25b
Variable types: 599982 continuous, 41727 integer (41727 binary)
Coefficient statistics:
  Matrix range     [5e-02, 2e+04]
  Objective range  [2e-01, 8e+04]
  Bounds range     [5e-02, 2e+04]
  RHS range        [5e-04, 7e+03]
Presolve removed 268495 rows and 115966 columns (presolve time = 5s) ...
Presolve removed 276145 rows and 116806 columns (presolve time = 10s) ...
Presolve removed 278182 rows and 119796 columns (presolve time = 15s) ...
Presolve removed 284002 rows and 124436 columns (presolve time = 20s) ...
Presolve removed 290755 rows and 124617 columns (presolve time = 25s) ...
Presolve removed 292055 rows and 125413 columns (presolve time = 30s) ...
Presolve removed 292105 rows and 125523 columns (presolve time = 35s) ...
Presolve removed 292105 rows and 125523 columns (presolve time = 40s) ...
Sparsify removed 163491 nonzeros (4%)
Presolve removed 292125 rows and 178311 columns (presolve time = 45s) ...
Presolve removed 292125 rows and 124166 columns
Presolve time: 46.16s
Presolved: 811529 rows, 517543 columns, 3931126 nonzeros
Variable types: 484010 continuous, 33533 integer (33480 binary)

Deterministic concurrent LP optimizer: primal simplex, dual simplex, and barrier
Showing barrier log only...

Root barrier log...

Elapsed ordering time = 5s
Elapsed ordering time = 17s
Elapsed ordering time = 20s
Elapsed ordering time = 25s
Elapsed ordering time = 32s
Elapsed ordering time = 35s
Elapsed ordering time = 40s
Elapsed ordering time = 45s
Elapsed ordering time = 46s
Elapsed ordering time = 50s
Elapsed ordering time = 55s
Elapsed ordering time = 58s
Elapsed ordering time = 61s
Elapsed ordering time = 65s
Ordering time: 69.76s

Barrier statistics:
 Dense cols : 163
 AA' NZ     : 2.336e+07
 Factor NZ  : 3.584e+08 (roughly 3.4 GB of memory)
 Factor Ops : 1.749e+12 (roughly 15 seconds per iteration)
 Threads    : 5

                  Objective                Residual
Iter       Primal          Dual         Primal    Dual     Compl     Time
   0  -2.19301589e+11 -1.80769197e+13  1.23e+04 2.03e+04  1.15e+08   141s
   1  -1.54708577e+11 -1.33960350e+13  8.81e+03 8.89e+05  7.36e+07   150s
   2  -1.11288225e+11 -8.38176846e+12  6.44e+03 1.63e+05  4.77e+07   165s
   3  -2.93303896e+10 -3.71480347e+12  1.89e+03 1.40e+00  1.36e+07   180s
   4  -6.23682656e+09 -1.66002929e+12  6.21e+02 1.53e-01  4.39e+06   196s
   5   3.34677794e+09 -8.13204199e+11  1.27e+02 3.25e-02  1.08e+06   211s
   6   4.74637318e+09 -2.87474101e+11  5.75e+01 1.87e-05  3.54e+05   228s
   7   4.85861761e+09 -1.36765042e+11  1.88e+01 7.55e-03  1.26e+05   244s
   8   2.92771336e+09 -3.35646287e+10  4.10e+00 2.86e-03  2.60e+04   261s
   9   8.86181758e+08 -1.33258502e+10  1.06e+00 1.27e-03  8.98e+03   279s
  10   2.33917370e+08 -2.51274365e+09  1.91e-01 3.17e-04  1.65e+03   297s
  11   8.34506976e+07 -4.46130505e+08  6.47e-04 5.24e-05  3.09e+02   314s
  12   6.72527790e+07 -8.82388094e+07  2.18e-05 1.05e-04  9.06e+01   333s
  13   5.79775610e+07 -1.65849463e+07  5.58e-06 4.81e-05  4.35e+01   352s
  14   5.33508195e+07  1.81451204e+07  3.15e-06 2.11e-05  2.05e+01   370s
  15   4.77260587e+07  3.60145187e+07  2.91e-06 1.46e-05  6.83e+00   390s
  16   4.46448746e+07  4.28757325e+07  1.39e-06 1.72e-06  1.03e+00   411s
  17   4.43527895e+07  4.33482800e+07  8.18e-07 9.49e-07  5.86e-01   427s
  18   4.41587955e+07  4.36890444e+07  4.71e-07 3.92e-07  2.74e-01   444s
  19   4.40021811e+07  4.38844641e+07  1.35e-07 6.01e-08  6.86e-02   464s
  20   4.39631824e+07  4.39098923e+07  6.40e-08 2.71e-08  3.11e-02   493s
  21   4.39428924e+07  4.39244092e+07  3.10e-07 1.16e-08  1.08e-02   525s
  22   4.39336537e+07  4.39299387e+07  3.23e-07 1.01e-08  2.17e-03   560s
  23   4.39319053e+07  4.39314543e+07  9.16e-08 1.66e-08  2.63e-04   581s
  24   4.39315334e+07  4.39315174e+07  2.14e-07 1.21e-08  9.31e-06   602s
  25   4.39315240e+07  4.39315237e+07  1.26e-06 1.56e-08  1.11e-07   618s
  26   4.39315238e+07  4.39315239e+07  2.53e-07 1.66e-08  4.81e-10   633s

Barrier solved model in 26 iterations and 632.98 seconds (569.99 work units)
Optimal objective 4.39315238e+07


Root crossover log...

  326513 DPushes remaining with DInf 0.0000000e+00               635s
  109272 DPushes remaining with DInf 0.0000000e+00               638s
   71423 DPushes remaining with DInf 0.0000000e+00               640s
   23533 DPushes remaining with DInf 0.0000000e+00               646s
    8159 DPushes remaining with DInf 0.0000000e+00               651s
       0 DPushes remaining with DInf 0.0000000e+00               656s

   20748 PPushes remaining with PInf 0.0000000e+00               656s
    5959 PPushes remaining with PInf 0.0000000e+00               660s
       0 PPushes remaining with PInf 0.0000000e+00               664s

  Push phase complete: Pinf 0.0000000e+00, Dinf 3.9081775e-07    664s


Root simplex log...

Iteration    Objective       Primal Inf.    Dual Inf.      Time
  157370    4.3931524e+07   0.000000e+00   0.000000e+00    665s
  157370    4.3931524e+07   0.000000e+00   0.000000e+00    667s
Waiting for other threads to finish...         734s
Concurrent spin time: 130.65s (can be avoided by choosing Method=3)

Solved with barrier

Root relaxation: objective 4.393152e+07, 157370 iterations, 746.80 seconds (554.62 work units)
Total elapsed time = 807.11s

    Nodes    |    Current Node    |     Objective Bounds      |     Work
 Expl Unexpl |  Obj  Depth IntInf | Incumbent    BestBd   Gap | It/Node Time

     0     0 4.3932e+07    0  165          - 4.3932e+07      -     -  817s
H    0     0                    4.414660e+07 4.3932e+07  0.49%     -  834s

Explored 1 nodes (157505 simplex iterations) in 835.05 seconds (619.42 work units)
Thread count was 8 (of 80 available processors)

Solution count 2: 4.41466e+07 4.41466e+07 

Optimal solution found (tolerance 1.00e-01)
Best objective 4.414659506405e+07, best bound 4.393152385703e+07, gap 0.4872%

User-callback calls 149821, time in user-callback 0.45 sec
